n_res = 4;
rc = [ 14, 13, 14, 13 ];
n_tasks = 30;
d = [ 4, 1, 1, 8, 4, 8, 7, 10, 9, 3, 10, 8, 5, 8, 1, 4, 9, 8, 7, 8, 4, 10, 3, 2, 4, 6, 7, 3, 2, 10 ];
rr = [| 14, 14, 14, 14, 14, 14, 14, 14, 14, 14, 14, 14, 14, 14, 14, 14, 14, 14, 14, 14, 14, 14, 14, 14, 14, 14, 14, 14, 14, 14
      | 13, 13, 13, 13, 13, 13, 13, 13, 13, 13, 13, 13, 13, 13, 13, 13, 13, 13, 13, 13, 13, 13, 13, 13, 13, 13, 13, 13, 13, 13
      | 14, 14, 14, 14, 14, 14, 14, 14, 14, 14, 14, 14, 14, 14, 14, 14, 14, 14, 14, 14, 14, 14, 14, 14, 14, 14, 14, 14, 14, 14
      | 13, 13, 13, 13, 13, 13, 13, 13, 13, 13, 13, 13, 13, 13, 13, 13, 13, 13, 13, 13, 13, 13, 13, 13, 13, 13, 13, 13, 13, 13|];
suc = [ { 18 },
       { 6, 7, 13 },
       { 4, 8, 24 },
       { 5, 13 },
       { 11, 16, 22 },
       { 21 },
       { 9, 24, 30 },
       { 28 },
       { 10, 12 },
       { 23 },
       { 15 },
       { 14, 18, 26 },
       { 17 },
       { 25 },
       { 27 },
       { 27 },
       { 19 },
       { 20, 25 },
       { 21, 23 },
       { 22, 23 },
       { 30 },
       { 29 },
       { 28 },
       { 27 },
       { 28 },
       { 29 },
       { 29 },
       {  },
       {  },
       {  } ];
